solution status: optimal solution found
objective value:                     143034.588470412
d11(0,0)                                            1 	(obj:0)
d11(2,4)                                            1 	(obj:0)
d11(2,5)                                            1 	(obj:0)
d11(2,6)                                            1 	(obj:0)
d11(2,7)                                            1 	(obj:0)
d11(2,8)                                            1 	(obj:0)
d11(2,10)                                           1 	(obj:0)
d11(2,11)                                           1 	(obj:0)
d11(3,13)                                           1 	(obj:0)
d11(3,14)                                           1 	(obj:0)
d11(3,16)                                           1 	(obj:0)
d11(3,19)                                           1 	(obj:0)
d11(3,20)                                           1 	(obj:0)
d11(3,22)                                           1 	(obj:0)
d11(3,23)                                           1 	(obj:0)
d11(3,25)                                           1 	(obj:0)
d11(3,26)                                           1 	(obj:0)
d11(3,28)                                           1 	(obj:0)
d11(3,29)                                           1 	(obj:0)
d11(3,31)                                           1 	(obj:0)
d11(3,32)                                           1 	(obj:0)
d11(3,34)                                           1 	(obj:0)
d11(3,37)                                           1 	(obj:0)
d11(3,38)                                           1 	(obj:0)
d11(4,40)                                           1 	(obj:0)
d11(4,41)                                           1 	(obj:0)
d11(4,43)                                           1 	(obj:0)
d11(4,44)                                           1 	(obj:0)
d11(4,46)                                           1 	(obj:0)
d11(4,47)                                           1 	(obj:0)
d11(4,49)                                           1 	(obj:0)
d11(4,50)                                           1 	(obj:0)
d11(4,52)                                           1 	(obj:0)
d11(4,53)                                           1 	(obj:0)
d11(4,55)                                           1 	(obj:0)
d11(4,56)                                           1 	(obj:0)
d11(4,58)                                           1 	(obj:0)
d11(4,59)                                           1 	(obj:0)
d11(4,61)                                           1 	(obj:0)
d11(4,62)                                           1 	(obj:0)
d11(4,64)                                           1 	(obj:0)
d11(4,65)                                           1 	(obj:0)
d11(4,67)                                           1 	(obj:0)
d11(4,68)                                           1 	(obj:0)
d11(4,70)                                           1 	(obj:0)
d11(4,71)                                           1 	(obj:0)
d11(4,73)                                           1 	(obj:0)
d11(4,74)                                           1 	(obj:0)
d11(4,75)                                           1 	(obj:0)
d11(4,76)                                           1 	(obj:0)
d11(4,77)                                           1 	(obj:0)
d11(4,79)                                           1 	(obj:0)
d11(4,80)                                           1 	(obj:0)
d11(4,82)                                           1 	(obj:0)
d11(4,83)                                           1 	(obj:0)
d11(4,84)                                           1 	(obj:0)
d11(4,85)                                           1 	(obj:0)
d11(4,86)                                           1 	(obj:0)
d11(4,88)                                           1 	(obj:0)
d11(4,89)                                           1 	(obj:0)
d11(4,91)                                           1 	(obj:0)
d11(4,92)                                           1 	(obj:0)
d11(4,93)                                           1 	(obj:0)
d11(4,94)                                           1 	(obj:0)
d11(4,95)                                           1 	(obj:0)
d11(4,97)                                           1 	(obj:0)
d11(4,98)                                           1 	(obj:0)
d11(4,100)                                          1 	(obj:0)
d11(4,101)                                          1 	(obj:0)
d11(4,103)                                          1 	(obj:0)
d11(4,104)                                          1 	(obj:0)
d11(4,106)                                          1 	(obj:0)
d11(4,107)                                          1 	(obj:0)
d11(4,108)                                          1 	(obj:0)
d11(4,109)                                          1 	(obj:0)
d11(4,110)                                          1 	(obj:0)
d11(4,111)                                          1 	(obj:0)
d11(4,112)                                          1 	(obj:0)
d11(4,113)                                          1 	(obj:0)
d11(4,115)                                          1 	(obj:0)
d11(4,116)                                          1 	(obj:0)
d11(4,118)                                          1 	(obj:0)
d11(4,119)                                          1 	(obj:0)
d12(1,1)                                            1 	(obj:0)
d12(1,2)                                            1 	(obj:0)
d12(1,3)                                            1 	(obj:0)
d12(3,15)                                           1 	(obj:0)
d12(3,18)                                           1 	(obj:0)
d12(3,21)                                           1 	(obj:0)
d12(3,24)                                           1 	(obj:0)
d12(3,27)                                           1 	(obj:0)
d12(3,30)                                           1 	(obj:0)
d12(3,33)                                           1 	(obj:0)
d12(3,36)                                           1 	(obj:0)
d12(3,39)                                           1 	(obj:0)
d21(3,13)                                           1 	(obj:0)
d21(4,40)                                           1 	(obj:0)
d21(4,41)                                           1 	(obj:0)
d21(4,42)                                           1 	(obj:0)
d21(4,43)                                           1 	(obj:0)
d21(4,44)                                           1 	(obj:0)
d21(4,45)                                           1 	(obj:0)
d21(4,46)                                           1 	(obj:0)
d21(4,47)                                           1 	(obj:0)
d21(4,49)                                           1 	(obj:0)
d21(4,50)                                           1 	(obj:0)
d21(4,52)                                           1 	(obj:0)
d21(4,53)                                           1 	(obj:0)
d21(4,55)                                           1 	(obj:0)
d21(4,58)                                           1 	(obj:0)
d21(4,61)                                           1 	(obj:0)
d21(4,67)                                           1 	(obj:0)
d21(4,68)                                           1 	(obj:0)
d21(4,69)                                           1 	(obj:0)
d21(4,70)                                           1 	(obj:0)
d21(4,71)                                           1 	(obj:0)
d21(4,73)                                           1 	(obj:0)
d21(4,76)                                           1 	(obj:0)
d21(4,77)                                           1 	(obj:0)
d21(4,79)                                           1 	(obj:0)
d21(4,85)                                           1 	(obj:0)
d21(4,94)                                           1 	(obj:0)
d21(4,95)                                           1 	(obj:0)
d21(4,97)                                           1 	(obj:0)
d21(4,103)                                          1 	(obj:0)
STE(1,1)                             4765.71820666733 	(obj:0)
STE(0,0)                                         4725 	(obj:0)
STE(1,2)                              5617.9531395173 	(obj:0)
STE(1,3)                             6658.87477336733 	(obj:0)
STE(2,4)                             2173.50000000066 	(obj:0)
STE(2,5)                             3170.26600333395 	(obj:0)
STE(2,6)                             4387.71820666733 	(obj:0)
STE(2,7)                             3025.73493285063 	(obj:0)
STE(2,8)                             4022.50093618392 	(obj:0)
STE(2,9)                              5239.9531395173 	(obj:0)
STE(2,10)                            4066.65656670067 	(obj:0)
STE(2,11)                            5063.42257003396 	(obj:0)
STE(2,12)                            6280.87477336733 	(obj:0)
STE(3,13)                            798.733996667373 	(obj:0)
STE(3,14)                            1795.50000000066 	(obj:0)
STE(3,15)                             2708.0633338507 	(obj:0)
STE(3,16)                            1795.50000000066 	(obj:0)
STE(3,17)                            2792.26600333395 	(obj:0)
STE(3,18)                            3704.82933718399 	(obj:0)
STE(3,19)                            3012.95220333404 	(obj:0)
STE(3,20)                            4009.71820666733 	(obj:0)
STE(3,21)                            4922.28154051737 	(obj:0)
STE(3,22)                            1650.96892951734 	(obj:0)
STE(3,23)                            2647.73493285063 	(obj:0)
STE(3,24)                            3560.29826670067 	(obj:0)
STE(3,25)                            2647.73493285063 	(obj:0)
STE(3,26)                            3644.50093618392 	(obj:0)
STE(3,27)                            4557.06427003396 	(obj:0)
STE(3,28)                            3865.18713618401 	(obj:0)
STE(3,29)                             4861.9531395173 	(obj:0)
STE(3,30)                            5774.51647336734 	(obj:0)
STE(3,31)                             2691.8905633674 	(obj:0)
STE(3,32)                            3688.65656670067 	(obj:0)
STE(3,33)                            4601.21990055071 	(obj:0)
STE(3,34)                            3688.65656670067 	(obj:0)
STE(3,35)                            4685.42257003396 	(obj:0)
STE(3,36)                              5597.985903884 	(obj:0)
STE(3,37)                            4906.10877003404 	(obj:0)
STE(3,38)                            5902.87477336733 	(obj:0)
STE(3,39)                            6815.43810721737 	(obj:0)
STE(4,40)                           -1793.48420999926 	(obj:0)
STE(4,41)                           -796.718206665971 	(obj:0)
STE(4,42)                            420.733996667373 	(obj:0)
STE(4,43)                           -796.718206665971 	(obj:0)
STE(4,44)                             200.04779666732 	(obj:0)
STE(4,45)                            1417.50000000066 	(obj:0)
STE(4,46)                             115.84512718407 	(obj:0)
STE(4,47)                            1112.61113051736 	(obj:0)
STE(4,48)                             2330.0633338507 	(obj:0)
STE(4,49)                           -796.718206665972 	(obj:0)
STE(4,50)                            200.047796667319 	(obj:0)
STE(4,51)                            1417.50000000066 	(obj:0)
STE(4,52)                            200.047796667319 	(obj:0)
STE(4,53)                            1196.81380000061 	(obj:0)
STE(4,54)                            2414.26600333395 	(obj:0)
STE(4,55)                            1112.61113051736 	(obj:0)
STE(4,56)                            2109.37713385065 	(obj:0)
STE(4,57)                            3326.82933718399 	(obj:0)
STE(4,58)                            420.733996667407 	(obj:0)
STE(4,59)                             1417.5000000007 	(obj:0)
STE(4,60)                            2634.95220333404 	(obj:0)
STE(4,61)                             1417.5000000007 	(obj:0)
STE(4,62)                            2414.26600333399 	(obj:0)
STE(4,63)                            3631.71820666733 	(obj:0)
STE(4,64)                            2330.06333385074 	(obj:0)
STE(4,65)                            3326.82933718403 	(obj:0)
STE(4,66)                            4544.28154051737 	(obj:0)
STE(4,67)                           -941.249277149298 	(obj:0)
STE(4,68)                            55.5167261839928 	(obj:0)
STE(4,69)                            1272.96892951734 	(obj:0)
STE(4,70)                            55.5167261839932 	(obj:0)
STE(4,71)                            1052.28272951728 	(obj:0)
STE(4,72)                            2269.73493285063 	(obj:0)
STE(4,73)                            968.080060034033 	(obj:0)
STE(4,74)                            1964.84606336732 	(obj:0)
STE(4,75)                             3182.2982667007 	(obj:0)
STE(4,76)                            55.5167261839932 	(obj:0)
STE(4,77)                            1052.28272951728 	(obj:0)
STE(4,78)                            2269.73493285063 	(obj:0)
STE(4,79)                            1052.28272951728 	(obj:0)
STE(4,80)                            2049.04873285057 	(obj:0)
STE(4,81)                            3266.50093618392 	(obj:0)
STE(4,82)                            1964.84606336732 	(obj:0)
STE(4,83)                            2961.61206670061 	(obj:0)
STE(4,84)                            4179.06427003399 	(obj:0)
STE(4,85)                            1272.96892951737 	(obj:0)
STE(4,86)                            2269.73493285066 	(obj:0)
STE(4,87)                            3487.18713618401 	(obj:0)
STE(4,88)                            2269.73493285066 	(obj:0)
STE(4,89)                            3266.50093618395 	(obj:0)
STE(4,90)                             4483.9531395173 	(obj:0)
STE(4,91)                             3182.2982667007 	(obj:0)
STE(4,92)                            4179.06427003399 	(obj:0)
STE(4,93)                            5396.51647336737 	(obj:0)
STE(4,94)                            99.6723567007701 	(obj:0)
STE(4,95)                            1096.43836003406 	(obj:0)
STE(4,96)                             2313.8905633674 	(obj:0)
STE(4,97)                            1096.43836003403 	(obj:0)
STE(4,98)                            2093.20436336732 	(obj:0)
STE(4,99)                            3310.65656670067 	(obj:0)
STE(4,100)                           2009.00169388407 	(obj:0)
STE(4,101)                           3005.76769721736 	(obj:0)
STE(4,102)                           4223.21990055071 	(obj:0)
STE(4,103)                           1096.43836003403 	(obj:0)
STE(4,104)                           2093.20436336732 	(obj:0)
STE(4,105)                           3310.65656670067 	(obj:0)
STE(4,106)                           2093.20436336732 	(obj:0)
STE(4,107)                           3089.97036670061 	(obj:0)
STE(4,108)                           4307.42257003396 	(obj:0)
STE(4,109)                           3005.76769721736 	(obj:0)
STE(4,110)                           4002.53370055065 	(obj:0)
STE(4,111)                             5219.985903884 	(obj:0)
STE(4,112)                           2313.89056336741 	(obj:0)
STE(4,113)                            3310.6565667007 	(obj:0)
STE(4,114)                           4528.10877003404 	(obj:0)
STE(4,115)                            3310.6565667007 	(obj:0)
STE(4,116)                           4307.42257003399 	(obj:0)
STE(4,117)                           5524.87477336733 	(obj:0)
STE(4,118)                           4223.21990055074 	(obj:0)
STE(4,119)                           5219.98590388403 	(obj:0)
STE(4,120)                           6437.43810721737 	(obj:0)
y1(4,100)                            1992.79638599997 	(obj:0)
y1(4,101)                            1095.70698300001 	(obj:0)
y1(4,103)                            1992.79638599997 	(obj:0)
y1(4,104)                            1095.70698300001 	(obj:0)
y1(4,106)                            1992.79638599997 	(obj:0)
y1(4,107)                            1095.70698300001 	(obj:0)
y1(4,109)                            1992.79638599997 	(obj:0)
y1(4,110)                            1095.70698300001 	(obj:0)
y1(4,112)                            1992.79638599997 	(obj:0)
y1(4,113)                            1095.70698300001 	(obj:0)
y1(4,115)                            1992.79638599997 	(obj:0)
y1(4,116)                            1095.70698300001 	(obj:0)
y1(4,118)                            1992.79638599997 	(obj:0)
y1(4,119)                            1095.70698300001 	(obj:0)
WB(3)                                 3399.3204933139 	(obj:0)
AVE(3)                                3399.3204933139 	(obj:0)
AVE(4)                               3353.21046544222 	(obj:0)
WG(4)                                3353.21046544222 	(obj:10)
BG(1)                                1933.77214704092 	(obj:10)
BG(2)                                4495.91834999999 	(obj:10)
BG(3)                                3377.84999999995 	(obj:10)
BG(4)                                1142.70788455778 	(obj:10)
WB(1)                                3134.60043707458 	(obj:0)
AVE(1)                               3134.60043707458 	(obj:0)
WB(2)                                3326.45170866643 	(obj:0)
AVE(2)                               3326.45170866643 	(obj:0)
y1(2,4)                                   1992.796386 	(obj:0)
y1(2,5)                              1095.70698300004 	(obj:0)
y1(2,7)                                   1992.796386 	(obj:0)
y1(2,8)                              1095.70698300004 	(obj:0)
y1(2,10)                                  1992.796386 	(obj:0)
y1(2,11)                             1095.70698300004 	(obj:0)
y1(3,13)                             897.089402999962 	(obj:0)
y1(3,16)                             897.089402999962 	(obj:0)
y1(3,19)                             897.089402999962 	(obj:0)
y1(3,22)                             897.089402999962 	(obj:0)
y1(3,25)                             897.089402999962 	(obj:0)
y1(3,28)                             897.089402999962 	(obj:0)
y1(3,31)                             897.089402999935 	(obj:0)
y1(3,34)                             897.089402999962 	(obj:0)
y1(3,37)                             897.089402999962 	(obj:0)
y1(4,40)                             1992.79638599997 	(obj:0)
y1(4,41)                             1095.70698300001 	(obj:0)
y1(4,43)                             1992.79638599997 	(obj:0)
y1(4,44)                             1095.70698300001 	(obj:0)
y1(4,46)                             1992.79638599997 	(obj:0)
y1(4,47)                             1095.70698300001 	(obj:0)
y1(4,49)                             1992.79638599997 	(obj:0)
y1(4,50)                             1095.70698300001 	(obj:0)
y1(4,52)                             1992.79638599997 	(obj:0)
y1(4,53)                             1095.70698300001 	(obj:0)
y1(4,55)                             1992.79638599997 	(obj:0)
y1(4,56)                             1095.70698300001 	(obj:0)
y1(4,58)                             1992.79638599997 	(obj:0)
y1(4,59)                             1095.70698300001 	(obj:0)
y1(4,61)                             1992.79638599997 	(obj:0)
y1(4,62)                             1095.70698300001 	(obj:0)
y1(4,64)                             1992.79638599997 	(obj:0)
y1(4,65)                             1095.70698300001 	(obj:0)
y1(4,67)                             1992.79638599997 	(obj:0)
y1(4,68)                             1095.70698300001 	(obj:0)
y1(4,70)                             1992.79638599997 	(obj:0)
y1(4,71)                             1095.70698300001 	(obj:0)
y1(4,73)                             1992.79638599997 	(obj:0)
y1(4,74)                             1095.70698300001 	(obj:0)
y1(4,76)                             1992.79638599997 	(obj:0)
y1(4,77)                             1095.70698300001 	(obj:0)
y1(4,79)                             1992.79638599997 	(obj:0)
y1(4,80)                             1095.70698300001 	(obj:0)
y1(4,82)                             1992.79638599997 	(obj:0)
y1(4,83)                             1095.70698300001 	(obj:0)
y1(4,85)                             1992.79638599997 	(obj:0)
y1(4,86)                             1095.70698300001 	(obj:0)
y1(4,88)                             1992.79638599997 	(obj:0)
y1(4,89)                             1095.70698300001 	(obj:0)
y1(4,91)                             1992.79638599997 	(obj:0)
y1(4,92)                             1095.70698300001 	(obj:0)
y1(4,94)                             1992.79638599997 	(obj:0)
y1(4,95)                             1095.70698300001 	(obj:0)
y1(4,97)                             1992.79638599997 	(obj:0)
y1(4,98)                             1095.70698300001 	(obj:0)
y2(1,1)                              440.756007018244 	(obj:0)
y2(1,2)                              1337.84541001821 	(obj:0)
y2(1,3)                              2433.55239301825 	(obj:0)
y2(3,15)                             960.592983000042 	(obj:0)
y2(3,18)                             960.592983000042 	(obj:0)
y2(3,21)                             960.592983000042 	(obj:0)
y2(3,24)                             960.592983000042 	(obj:0)
y2(3,27)                             960.592983000042 	(obj:0)
y2(3,30)                             960.592983000042 	(obj:0)
y2(3,33)                             960.592983000042 	(obj:0)
y2(3,36)                             960.592983000042 	(obj:0)
y2(3,39)                             960.592983000042 	(obj:0)
